; Benchmark for LTL-sketching problem
(set-logic QF_UF)
(set-info :status unknown)
(declare-fun z_0_0 () Bool)
(declare-fun z_0_1 () Bool)
(declare-fun z_0_3 () Bool)
(declare-fun z_0_6 () Bool)
(declare-fun z_0_7 () Bool)
(declare-fun z_0_9 () Bool)
(declare-fun z_0_10 () Bool)
(declare-fun z_0_11 () Bool)
(declare-fun z_0_19 () Bool)
(declare-fun z_0_21 () Bool)
(declare-fun z_0_28 () Bool)
(declare-fun z_0_29 () Bool)
(declare-fun z_0_30 () Bool)
(declare-fun z_0_31 () Bool)
(declare-fun z_0_32 () Bool)
(declare-fun z_0_33 () Bool)
(declare-fun z_0_35 () Bool)
(declare-fun z_0_36 () Bool)
(declare-fun z_0_37 () Bool)
(declare-fun z_0_39 () Bool)
(declare-fun z_0_40 () Bool)
(declare-fun z_0_42 () Bool)
(declare-fun z_0_43 () Bool)
(declare-fun z_0_50 () Bool)
(declare-fun z_0_52 () Bool)
(declare-fun z_0_54 () Bool)
(declare-fun z_0_55 () Bool)
(declare-fun z_0_56 () Bool)
(declare-fun z_0_58 () Bool)
(declare-fun z_0_59 () Bool)
(declare-fun z_0_60 () Bool)
(declare-fun z_0_61 () Bool)
(declare-fun z_0_62 () Bool)
(declare-fun z_0_64 () Bool)
(declare-fun z_0_67 () Bool)
(declare-fun z_0_68 () Bool)
(declare-fun z_0_76 () Bool)
(declare-fun z_0_79 () Bool)
(declare-fun z_0_82 () Bool)
(declare-fun z_0_83 () Bool)
(declare-fun x_0_G () Bool)
(declare-fun x_0_F () Bool)
(declare-fun x_0_X () Bool)
(declare-fun x_0_! () Bool)
(declare-fun z_2_0 () Bool)
(declare-fun z_2_1 () Bool)
(declare-fun z_2_2 () Bool)
(declare-fun z_0_2 () Bool)
(declare-fun z_2_3 () Bool)
(declare-fun z_2_4 () Bool)
(declare-fun z_2_5 () Bool)
(declare-fun z_0_4 () Bool)
(declare-fun z_0_5 () Bool)
(declare-fun z_2_6 () Bool)
(declare-fun z_2_7 () Bool)
(declare-fun z_2_8 () Bool)
(declare-fun z_2_10 () Bool)
(declare-fun z_2_9 () Bool)
(declare-fun z_0_8 () Bool)
(declare-fun z_2_11 () Bool)
(declare-fun z_2_12 () Bool)
(declare-fun z_2_18 () Bool)
(declare-fun z_2_17 () Bool)
(declare-fun z_2_16 () Bool)
(declare-fun z_2_15 () Bool)
(declare-fun z_2_14 () Bool)
(declare-fun z_2_13 () Bool)
(declare-fun z_0_12 () Bool)
(declare-fun z_0_13 () Bool)
(declare-fun z_0_14 () Bool)
(declare-fun z_0_15 () Bool)
(declare-fun z_0_16 () Bool)
(declare-fun z_0_17 () Bool)
(declare-fun z_0_18 () Bool)
(declare-fun z_2_19 () Bool)
(declare-fun z_2_20 () Bool)
(declare-fun z_0_20 () Bool)
(declare-fun z_2_21 () Bool)
(declare-fun z_2_22 () Bool)
(declare-fun z_2_27 () Bool)
(declare-fun z_2_26 () Bool)
(declare-fun z_2_25 () Bool)
(declare-fun z_2_24 () Bool)
(declare-fun z_2_23 () Bool)
(declare-fun z_0_22 () Bool)
(declare-fun z_0_23 () Bool)
(declare-fun z_0_24 () Bool)
(declare-fun z_0_25 () Bool)
(declare-fun z_0_26 () Bool)
(declare-fun z_0_27 () Bool)
(declare-fun z_2_28 () Bool)
(declare-fun z_2_29 () Bool)
(declare-fun z_2_30 () Bool)
(declare-fun z_2_31 () Bool)
(declare-fun z_2_32 () Bool)
(declare-fun z_2_33 () Bool)
(declare-fun z_2_34 () Bool)
(declare-fun z_0_34 () Bool)
(declare-fun z_2_35 () Bool)
(declare-fun z_2_36 () Bool)
(declare-fun z_2_37 () Bool)
(declare-fun z_2_38 () Bool)
(declare-fun z_0_38 () Bool)
(declare-fun z_2_39 () Bool)
(declare-fun z_2_40 () Bool)
(declare-fun z_2_41 () Bool)
(declare-fun z_0_41 () Bool)
(declare-fun z_2_42 () Bool)
(declare-fun z_2_43 () Bool)
(declare-fun z_2_44 () Bool)
(declare-fun z_2_49 () Bool)
(declare-fun z_2_48 () Bool)
(declare-fun z_2_47 () Bool)
(declare-fun z_2_46 () Bool)
(declare-fun z_2_45 () Bool)
(declare-fun z_0_44 () Bool)
(declare-fun z_0_45 () Bool)
(declare-fun z_0_46 () Bool)
(declare-fun z_0_47 () Bool)
(declare-fun z_0_48 () Bool)
(declare-fun z_0_49 () Bool)
(declare-fun z_2_50 () Bool)
(declare-fun z_2_51 () Bool)
(declare-fun z_0_51 () Bool)
(declare-fun z_2_52 () Bool)
(declare-fun z_2_53 () Bool)
(declare-fun z_0_53 () Bool)
(declare-fun z_2_54 () Bool)
(declare-fun z_2_55 () Bool)
(declare-fun z_2_56 () Bool)
(declare-fun z_2_57 () Bool)
(declare-fun z_0_57 () Bool)
(declare-fun z_2_58 () Bool)
(declare-fun z_2_59 () Bool)
(declare-fun z_2_60 () Bool)
(declare-fun z_2_61 () Bool)
(declare-fun z_2_62 () Bool)
(declare-fun z_2_63 () Bool)
(declare-fun z_0_63 () Bool)
(declare-fun z_2_64 () Bool)
(declare-fun z_2_65 () Bool)
(declare-fun z_2_66 () Bool)
(declare-fun z_0_65 () Bool)
(declare-fun z_0_66 () Bool)
(declare-fun z_2_67 () Bool)
(declare-fun z_2_68 () Bool)
(declare-fun z_2_69 () Bool)
(declare-fun z_2_75 () Bool)
(declare-fun z_2_74 () Bool)
(declare-fun z_2_73 () Bool)
(declare-fun z_2_72 () Bool)
(declare-fun z_2_71 () Bool)
(declare-fun z_2_70 () Bool)
(declare-fun z_0_69 () Bool)
(declare-fun z_0_70 () Bool)
(declare-fun z_0_71 () Bool)
(declare-fun z_0_72 () Bool)
(declare-fun z_0_73 () Bool)
(declare-fun z_0_74 () Bool)
(declare-fun z_0_75 () Bool)
(declare-fun z_2_76 () Bool)
(declare-fun z_2_77 () Bool)
(declare-fun z_2_78 () Bool)
(declare-fun z_0_77 () Bool)
(declare-fun z_0_78 () Bool)
(declare-fun z_2_79 () Bool)
(declare-fun z_2_80 () Bool)
(declare-fun z_2_81 () Bool)
(declare-fun z_0_80 () Bool)
(declare-fun z_0_81 () Bool)
(declare-fun z_2_82 () Bool)
(declare-fun z_2_83 () Bool)
(declare-fun z_2_84 () Bool)
(declare-fun z_0_84 () Bool)
(declare-fun x_2_p () Bool)
(declare-fun x_2_-> () Bool)
(declare-fun x_2_U () Bool)
(declare-fun x_2_v () Bool)
(declare-fun x_2_& () Bool)
(declare-fun x_2_X () Bool)
(declare-fun x_2_! () Bool)
(declare-fun x_2_F () Bool)
(declare-fun x_2_G () Bool)
(assert
 z_0_0)
(assert
 (not z_0_1))
(assert
 (not z_0_3))
(assert
 (not z_0_6))
(assert
 (not z_0_7))
(assert
 (not z_0_9))
(assert
 (not z_0_10))
(assert
 (not z_0_11))
(assert
 (not z_0_19))
(assert
 (not z_0_21))
(assert
 (not z_0_28))
(assert
 (not z_0_29))
(assert
 (not z_0_30))
(assert
 (not z_0_31))
(assert
 (not z_0_32))
(assert
 (not z_0_33))
(assert
 (not z_0_35))
(assert
 (not z_0_36))
(assert
 (not z_0_37))
(assert
 (not z_0_39))
(assert
 (not z_0_40))
(assert
 (not z_0_42))
(assert
 (not z_0_43))
(assert
 (not z_0_50))
(assert
 (not z_0_52))
(assert
 (not z_0_54))
(assert
 (not z_0_55))
(assert
 (not z_0_56))
(assert
 (not z_0_58))
(assert
 (not z_0_59))
(assert
 (not z_0_60))
(assert
 (not z_0_61))
(assert
 (not z_0_62))
(assert
 (not z_0_64))
(assert
 (not z_0_67))
(assert
 (not z_0_68))
(assert
 (not z_0_76))
(assert
 (not z_0_79))
(assert
 (not z_0_82))
(assert
 (not z_0_83))
(assert
 (or x_0_! x_0_X x_0_F x_0_G))
(assert
 (let (($x15 (not x_0_G)))
 (let (($x13 (not x_0_F)))
 (let (($x19 (or $x13 $x15)))
 (let (($x11 (not x_0_X)))
 (let (($x18 (or $x11 $x15)))
 (let (($x17 (or $x11 $x13)))
 (let (($x10 (not x_0_!)))
 (let (($x16 (or $x10 $x15)))
 (let (($x14 (or $x10 $x13)))
 (let (($x12 (or $x10 $x11)))
 (and $x12 $x14 $x16 $x17 $x18 $x19))))))))))))
(assert
 (=> x_0_! (= z_0_0 (not z_2_0))))
(assert
 (let (($x1833 (= z_0_0 z_2_0)))
 (=> x_0_X $x1833)))
(assert
 (=> x_0_F (= z_0_0 (or z_2_0 z_0_0))))
(assert
 (let (($x1818 (= z_0_0 (and z_2_0 z_0_0))))
 (=> x_0_G $x1818)))
(assert
 (=> x_0_! (= z_0_1 (not z_2_1))))
(assert
 (let (($x5943 (= z_0_1 z_2_2)))
 (=> x_0_X $x5943)))
(assert
 (=> x_0_F (= z_0_1 (or z_2_1 z_2_2 z_2_0))))
(assert
 (let (($x5953 (= z_0_1 (and z_2_1 z_2_2 z_2_0))))
 (=> x_0_G $x5953)))
(assert
 (=> x_0_! (= z_0_2 (not z_2_2))))
(assert
 (let (($x5962 (= z_0_2 z_2_0)))
 (=> x_0_X $x5962)))
(assert
 (=> x_0_F (= z_0_2 (or z_2_2 z_2_0))))
(assert
 (let (($x5972 (= z_0_2 (and z_2_2 z_2_0))))
 (=> x_0_G $x5972)))
(assert
 (=> x_0_! (= z_0_3 (not z_2_3))))
(assert
 (let (($x5983 (= z_0_3 z_2_4)))
 (=> x_0_X $x5983)))
(assert
 (let (($x5987 (or z_2_3 z_2_4 z_2_5)))
 (let (($x5988 (= z_0_3 $x5987)))
 (=> x_0_F $x5988))))
(assert
 (let (($x5992 (= z_0_3 (and z_2_3 z_2_4 z_2_5))))
 (=> x_0_G $x5992)))
(assert
 (=> x_0_! (= z_0_4 (not z_2_4))))
(assert
 (let (($x6001 (= z_0_4 z_2_5)))
 (=> x_0_X $x6001)))
(assert
 (=> x_0_F (= z_0_4 (or z_2_4 z_2_5 z_2_3))))
(assert
 (let (($x6010 (= z_0_4 (and z_2_4 z_2_5 z_2_3))))
 (=> x_0_G $x6010)))
(assert
 (=> x_0_! (= z_0_5 (not z_2_5))))
(assert
 (let (($x6019 (= z_0_5 z_2_3)))
 (=> x_0_X $x6019)))
(assert
 (=> x_0_F (= z_0_5 (or z_2_5 z_0_3))))
(assert
 (let (($x6029 (= z_0_5 (and z_2_5 z_0_3))))
 (=> x_0_G $x6029)))
(assert
 (=> x_0_! (= z_0_6 (not z_2_6))))
(assert
 (let (($x6039 (= z_0_6 z_2_5)))
 (=> x_0_X $x6039)))
(assert
 (=> x_0_F (= z_0_6 (or z_2_6 z_2_5 z_2_3 z_2_4))))
(assert
 (let (($x6049 (= z_0_6 (and z_2_6 z_2_5 z_2_3 z_2_4))))
 (=> x_0_G $x6049)))
(assert
 (=> x_0_! (= z_0_7 (not z_2_7))))
(assert
 (let (($x6060 (= z_0_7 z_2_8)))
 (=> x_0_X $x6060)))
(assert
 (let (($x6066 (= z_0_7 (or z_2_7 z_2_8 z_2_9 z_2_10))))
 (=> x_0_F $x6066)))
(assert
 (let (($x6070 (= z_0_7 (and z_2_7 z_2_8 z_2_9 z_2_10))))
 (=> x_0_G $x6070)))
(assert
 (=> x_0_! (= z_0_8 (not z_2_8))))
(assert
 (let (($x6079 (= z_0_8 z_2_9)))
 (=> x_0_X $x6079)))
(assert
 (let (($x6083 (= z_0_8 (or z_2_8 z_2_9 z_2_10))))
 (=> x_0_F $x6083)))
(assert
 (let (($x6087 (= z_0_8 (and z_2_8 z_2_9 z_2_10))))
 (=> x_0_G $x6087)))
(assert
 (=> x_0_! (= z_0_9 (not z_2_9))))
(assert
 (let (($x6096 (= z_0_9 z_2_10)))
 (=> x_0_X $x6096)))
(assert
 (let (($x6100 (= z_0_9 (or z_2_9 z_2_10))))
 (=> x_0_F $x6100)))
(assert
 (let (($x6104 (= z_0_9 (and z_2_9 z_2_10))))
 (=> x_0_G $x6104)))
(assert
 (=> x_0_! (= z_0_10 (not z_2_10))))
(assert
 (let (($x6113 (= z_0_10 z_2_9)))
 (=> x_0_X $x6113)))
(assert
 (=> x_0_F (= z_0_10 (or z_2_10 z_0_9))))
(assert
 (let (($x6123 (= z_0_10 (and z_2_10 z_0_9))))
 (=> x_0_G $x6123)))
(assert
 (=> x_0_! (= z_0_11 (not z_2_11))))
(assert
 (let (($x6134 (= z_0_11 z_2_12)))
 (=> x_0_X $x6134)))
(assert
 (let (($x6143 (or z_2_11 z_2_12 z_2_13 z_2_14 z_2_15 z_2_16 z_2_17 z_2_18)))
 (let (($x6144 (= z_0_11 $x6143)))
 (=> x_0_F $x6144))))
(assert
 (let (($x6147 (and z_2_11 z_2_12 z_2_13 z_2_14 z_2_15 z_2_16 z_2_17 z_2_18)))
 (let (($x6148 (= z_0_11 $x6147)))
 (=> x_0_G $x6148))))
(assert
 (=> x_0_! (= z_0_12 (not z_2_12))))
(assert
 (let (($x6157 (= z_0_12 z_2_13)))
 (=> x_0_X $x6157)))
(assert
 (let (($x6161 (= z_0_12 (or z_2_12 z_2_13 z_2_14 z_2_15 z_2_16 z_2_17 z_2_18))))
 (=> x_0_F $x6161)))
(assert
 (let (($x6165 (= z_0_12 (and z_2_12 z_2_13 z_2_14 z_2_15 z_2_16 z_2_17 z_2_18))))
 (=> x_0_G $x6165)))
(assert
 (=> x_0_! (= z_0_13 (not z_2_13))))
(assert
 (let (($x6174 (= z_0_13 z_2_14)))
 (=> x_0_X $x6174)))
(assert
 (let (($x6178 (= z_0_13 (or z_2_13 z_2_14 z_2_15 z_2_16 z_2_17 z_2_18))))
 (=> x_0_F $x6178)))
(assert
 (let (($x6182 (= z_0_13 (and z_2_13 z_2_14 z_2_15 z_2_16 z_2_17 z_2_18))))
 (=> x_0_G $x6182)))
(assert
 (=> x_0_! (= z_0_14 (not z_2_14))))
(assert
 (let (($x6191 (= z_0_14 z_2_15)))
 (=> x_0_X $x6191)))
(assert
 (let (($x6195 (= z_0_14 (or z_2_14 z_2_15 z_2_16 z_2_17 z_2_18))))
 (=> x_0_F $x6195)))
(assert
 (let (($x6199 (= z_0_14 (and z_2_14 z_2_15 z_2_16 z_2_17 z_2_18))))
 (=> x_0_G $x6199)))
(assert
 (=> x_0_! (= z_0_15 (not z_2_15))))
(assert
 (let (($x6208 (= z_0_15 z_2_16)))
 (=> x_0_X $x6208)))
(assert
 (let (($x6211 (or z_2_15 z_2_16 z_2_17 z_2_18)))
 (let (($x6212 (= z_0_15 $x6211)))
 (=> x_0_F $x6212))))
(assert
 (let (($x6216 (= z_0_15 (and z_2_15 z_2_16 z_2_17 z_2_18))))
 (=> x_0_G $x6216)))
(assert
 (=> x_0_! (= z_0_16 (not z_2_16))))
(assert
 (let (($x6225 (= z_0_16 z_2_17)))
 (=> x_0_X $x6225)))
(assert
 (=> x_0_F (= z_0_16 (or z_2_16 z_2_17 z_2_18 z_2_15))))
(assert
 (let (($x6234 (= z_0_16 (and z_2_16 z_2_17 z_2_18 z_2_15))))
 (=> x_0_G $x6234)))
(assert
 (=> x_0_! (= z_0_17 (not z_2_17))))
(assert
 (let (($x6243 (= z_0_17 z_2_18)))
 (=> x_0_X $x6243)))
(assert
 (=> x_0_F (= z_0_17 (or z_2_17 z_2_18 z_2_15 z_2_16))))
(assert
 (let (($x6252 (= z_0_17 (and z_2_17 z_2_18 z_2_15 z_2_16))))
 (=> x_0_G $x6252)))
(assert
 (=> x_0_! (= z_0_18 (not z_2_18))))
(assert
 (let (($x6261 (= z_0_18 z_2_15)))
 (=> x_0_X $x6261)))
(assert
 (=> x_0_F (= z_0_18 (or z_2_18 z_0_15))))
(assert
 (let (($x6271 (= z_0_18 (and z_2_18 z_0_15))))
 (=> x_0_G $x6271)))
(assert
 (=> x_0_! (= z_0_19 (not z_2_19))))
(assert
 (let (($x6282 (= z_0_19 z_2_20)))
 (=> x_0_X $x6282)))
(assert
 (=> x_0_F (= z_0_19 (or z_2_19 z_2_20 z_2_16 z_2_17 z_2_18 z_2_15))))
(assert
 (let (($x6292 (= z_0_19 (and z_2_19 z_2_20 z_2_16 z_2_17 z_2_18 z_2_15))))
 (=> x_0_G $x6292)))
(assert
 (=> x_0_! (= z_0_20 (not z_2_20))))
(assert
 (let (($x6301 (= z_0_20 z_2_16)))
 (=> x_0_X $x6301)))
(assert
 (=> x_0_F (= z_0_20 (or z_2_20 z_2_16 z_2_17 z_2_18 z_2_15))))
(assert
 (let (($x6311 (= z_0_20 (and z_2_20 z_2_16 z_2_17 z_2_18 z_2_15))))
 (=> x_0_G $x6311)))
(assert
 (=> x_0_! (= z_0_21 (not z_2_21))))
(assert
 (let (($x6322 (= z_0_21 z_2_22)))
 (=> x_0_X $x6322)))
(assert
 (let (($x6331 (= z_0_21 (or z_2_21 z_2_22 z_2_23 z_2_24 z_2_25 z_2_26 z_2_27))))
 (=> x_0_F $x6331)))
(assert
 (let (($x6335 (= z_0_21 (and z_2_21 z_2_22 z_2_23 z_2_24 z_2_25 z_2_26 z_2_27))))
 (=> x_0_G $x6335)))
(assert
 (=> x_0_! (= z_0_22 (not z_2_22))))
(assert
 (let (($x6344 (= z_0_22 z_2_23)))
 (=> x_0_X $x6344)))
(assert
 (let (($x6348 (= z_0_22 (or z_2_22 z_2_23 z_2_24 z_2_25 z_2_26 z_2_27))))
 (=> x_0_F $x6348)))
(assert
 (let (($x6352 (= z_0_22 (and z_2_22 z_2_23 z_2_24 z_2_25 z_2_26 z_2_27))))
 (=> x_0_G $x6352)))
(assert
 (=> x_0_! (= z_0_23 (not z_2_23))))
(assert
 (let (($x6361 (= z_0_23 z_2_24)))
 (=> x_0_X $x6361)))
(assert
 (let (($x6365 (= z_0_23 (or z_2_23 z_2_24 z_2_25 z_2_26 z_2_27))))
 (=> x_0_F $x6365)))
(assert
 (let (($x6369 (= z_0_23 (and z_2_23 z_2_24 z_2_25 z_2_26 z_2_27))))
 (=> x_0_G $x6369)))
(assert
 (=> x_0_! (= z_0_24 (not z_2_24))))
(assert
 (let (($x6378 (= z_0_24 z_2_25)))
 (=> x_0_X $x6378)))
(assert
 (let (($x6381 (or z_2_24 z_2_25 z_2_26 z_2_27)))
 (let (($x6382 (= z_0_24 $x6381)))
 (=> x_0_F $x6382))))
(assert
 (let (($x6386 (= z_0_24 (and z_2_24 z_2_25 z_2_26 z_2_27))))
 (=> x_0_G $x6386)))
(assert
 (=> x_0_! (= z_0_25 (not z_2_25))))
(assert
 (let (($x6395 (= z_0_25 z_2_26)))
 (=> x_0_X $x6395)))
(assert
 (=> x_0_F (= z_0_25 (or z_2_25 z_2_26 z_2_27 z_2_24))))
(assert
 (let (($x6404 (= z_0_25 (and z_2_25 z_2_26 z_2_27 z_2_24))))
 (=> x_0_G $x6404)))
(assert
 (=> x_0_! (= z_0_26 (not z_2_26))))
(assert
 (let (($x6413 (= z_0_26 z_2_27)))
 (=> x_0_X $x6413)))
(assert
 (=> x_0_F (= z_0_26 (or z_2_26 z_2_27 z_2_24 z_2_25))))
(assert
 (let (($x6422 (= z_0_26 (and z_2_26 z_2_27 z_2_24 z_2_25))))
 (=> x_0_G $x6422)))
(assert
 (=> x_0_! (= z_0_27 (not z_2_27))))
(assert
 (let (($x6431 (= z_0_27 z_2_24)))
 (=> x_0_X $x6431)))
(assert
 (=> x_0_F (= z_0_27 (or z_2_27 z_0_24))))
(assert
 (let (($x6441 (= z_0_27 (and z_2_27 z_0_24))))
 (=> x_0_G $x6441)))
(assert
 (=> x_0_! (= z_0_28 (not z_2_28))))
(assert
 (let (($x6452 (= z_0_28 z_2_29)))
 (=> x_0_X $x6452)))
(assert
 (let (($x6456 (= z_0_28 (or z_2_28 z_2_29))))
 (=> x_0_F $x6456)))
(assert
 (let (($x6460 (= z_0_28 (and z_2_28 z_2_29))))
 (=> x_0_G $x6460)))
(assert
 (=> x_0_! (= z_0_29 (not z_2_29))))
(assert
 (let (($x6469 (= z_0_29 z_2_29)))
 (=> x_0_X $x6469)))
(assert
 (=> x_0_F (= z_0_29 (or z_2_29 z_0_29))))
(assert
 (let (($x6479 (= z_0_29 (and z_2_29 z_0_29))))
 (=> x_0_G $x6479)))
(assert
 (=> x_0_! (= z_0_30 (not z_2_30))))
(assert
 (let (($x6489 (= z_0_30 z_2_19)))
 (=> x_0_X $x6489)))
(assert
 (let (($x6493 (= z_0_30 (or z_2_30 z_2_19 z_2_20 z_2_16 z_2_17 z_2_18 z_2_15))))
 (=> x_0_F $x6493)))
(assert
 (let (($x6499 (= z_0_30 (and z_2_30 z_2_19 z_2_20 z_2_16 z_2_17 z_2_18 z_2_15))))
 (=> x_0_G $x6499)))
(assert
 (=> x_0_! (= z_0_31 (not z_2_31))))
(assert
 (let (($x6510 (= z_0_31 z_2_32)))
 (=> x_0_X $x6510)))
(assert
 (=> x_0_F (= z_0_31 (or z_2_31 z_2_32 z_2_28 z_2_29))))
(assert
 (let (($x6520 (= z_0_31 (and z_2_31 z_2_32 z_2_28 z_2_29))))
 (=> x_0_G $x6520)))
(assert
 (=> x_0_! (= z_0_32 (not z_2_32))))
(assert
 (let (($x6529 (= z_0_32 z_2_28)))
 (=> x_0_X $x6529)))
(assert
 (=> x_0_F (= z_0_32 (or z_2_32 z_2_28 z_2_29))))
(assert
 (let (($x6539 (= z_0_32 (and z_2_32 z_2_28 z_2_29))))
 (=> x_0_G $x6539)))
(assert
 (=> x_0_! (= z_0_33 (not z_2_33))))
(assert
 (let (($x6550 (= z_0_33 z_2_34)))
 (=> x_0_X $x6550)))
(assert
 (=> x_0_F (= z_0_33 (or z_2_33 z_2_34 z_2_25 z_2_26 z_2_27 z_2_24))))
(assert
 (let (($x6560 (= z_0_33 (and z_2_33 z_2_34 z_2_25 z_2_26 z_2_27 z_2_24))))
 (=> x_0_G $x6560)))
(assert
 (=> x_0_! (= z_0_34 (not z_2_34))))
(assert
 (let (($x6569 (= z_0_34 z_2_25)))
 (=> x_0_X $x6569)))
(assert
 (=> x_0_F (= z_0_34 (or z_2_34 z_2_25 z_2_26 z_2_27 z_2_24))))
(assert
 (let (($x6579 (= z_0_34 (and z_2_34 z_2_25 z_2_26 z_2_27 z_2_24))))
 (=> x_0_G $x6579)))
(assert
 (=> x_0_! (= z_0_35 (not z_2_35))))
(assert
 (let (($x6589 (= z_0_35 z_2_7)))
 (=> x_0_X $x6589)))
(assert
 (=> x_0_F (= z_0_35 (or z_2_35 z_2_7 z_2_8 z_2_9 z_2_10))))
(assert
 (let (($x6599 (= z_0_35 (and z_2_35 z_2_7 z_2_8 z_2_9 z_2_10))))
 (=> x_0_G $x6599)))
(assert
 (=> x_0_! (= z_0_36 (not z_2_36))))
(assert
 (let (($x6609 (= z_0_36 z_2_17)))
 (=> x_0_X $x6609)))
(assert
 (=> x_0_F (= z_0_36 (or z_2_36 z_2_17 z_2_18 z_2_15 z_2_16))))
(assert
 (let (($x6619 (= z_0_36 (and z_2_36 z_2_17 z_2_18 z_2_15 z_2_16))))
 (=> x_0_G $x6619)))
(assert
 (=> x_0_! (= z_0_37 (not z_2_37))))
(assert
 (let (($x6630 (= z_0_37 z_2_38)))
 (=> x_0_X $x6630)))
(assert
 (let (($x6634 (= z_0_37 (or z_2_37 z_2_38 z_2_20 z_2_16 z_2_17 z_2_18 z_2_15))))
 (=> x_0_F $x6634)))
(assert
 (let (($x6640 (= z_0_37 (and z_2_37 z_2_38 z_2_20 z_2_16 z_2_17 z_2_18 z_2_15))))
 (=> x_0_G $x6640)))
(assert
 (=> x_0_! (= z_0_38 (not z_2_38))))
(assert
 (let (($x6649 (= z_0_38 z_2_20)))
 (=> x_0_X $x6649)))
(assert
 (=> x_0_F (= z_0_38 (or z_2_38 z_2_20 z_2_16 z_2_17 z_2_18 z_2_15))))
(assert
 (let (($x6659 (= z_0_38 (and z_2_38 z_2_20 z_2_16 z_2_17 z_2_18 z_2_15))))
 (=> x_0_G $x6659)))
(assert
 (=> x_0_! (= z_0_39 (not z_2_39))))
(assert
 (let (($x6670 (= z_0_39 z_2_40)))
 (=> x_0_X $x6670)))
(assert
 (let (($x6675 (= z_0_39 (or z_2_39 z_2_40 z_2_41 z_2_6 z_2_5 z_2_3 z_2_4))))
 (=> x_0_F $x6675)))
(assert
 (let (($x6681 (= z_0_39 (and z_2_39 z_2_40 z_2_41 z_2_6 z_2_5 z_2_3 z_2_4))))
 (=> x_0_G $x6681)))
(assert
 (=> x_0_! (= z_0_40 (not z_2_40))))
(assert
 (let (($x6690 (= z_0_40 z_2_41)))
 (=> x_0_X $x6690)))
(assert
 (=> x_0_F (= z_0_40 (or z_2_40 z_2_41 z_2_6 z_2_5 z_2_3 z_2_4))))
(assert
 (let (($x6700 (= z_0_40 (and z_2_40 z_2_41 z_2_6 z_2_5 z_2_3 z_2_4))))
 (=> x_0_G $x6700)))
(assert
 (=> x_0_! (= z_0_41 (not z_2_41))))
(assert
 (let (($x6709 (= z_0_41 z_2_6)))
 (=> x_0_X $x6709)))
(assert
 (=> x_0_F (= z_0_41 (or z_2_41 z_2_6 z_2_5 z_2_3 z_2_4))))
(assert
 (let (($x6719 (= z_0_41 (and z_2_41 z_2_6 z_2_5 z_2_3 z_2_4))))
 (=> x_0_G $x6719)))
(assert
 (=> x_0_! (= z_0_42 (not z_2_42))))
(assert
 (let (($x6729 (= z_0_42 z_2_8)))
 (=> x_0_X $x6729)))
(assert
 (=> x_0_F (= z_0_42 (or z_2_42 z_2_8 z_2_9 z_2_10))))
(assert
 (let (($x6739 (= z_0_42 (and z_2_42 z_2_8 z_2_9 z_2_10))))
 (=> x_0_G $x6739)))
(assert
 (=> x_0_! (= z_0_43 (not z_2_43))))
(assert
 (let (($x6750 (= z_0_43 z_2_44)))
 (=> x_0_X $x6750)))
(assert
 (let (($x6759 (= z_0_43 (or z_2_43 z_2_44 z_2_45 z_2_46 z_2_47 z_2_48 z_2_49))))
 (=> x_0_F $x6759)))
(assert
 (let (($x6763 (= z_0_43 (and z_2_43 z_2_44 z_2_45 z_2_46 z_2_47 z_2_48 z_2_49))))
 (=> x_0_G $x6763)))
(assert
 (=> x_0_! (= z_0_44 (not z_2_44))))
(assert
 (let (($x6772 (= z_0_44 z_2_45)))
 (=> x_0_X $x6772)))
(assert
 (let (($x6776 (= z_0_44 (or z_2_44 z_2_45 z_2_46 z_2_47 z_2_48 z_2_49))))
 (=> x_0_F $x6776)))
(assert
 (let (($x6780 (= z_0_44 (and z_2_44 z_2_45 z_2_46 z_2_47 z_2_48 z_2_49))))
 (=> x_0_G $x6780)))
(assert
 (=> x_0_! (= z_0_45 (not z_2_45))))
(assert
 (let (($x6789 (= z_0_45 z_2_46)))
 (=> x_0_X $x6789)))
(assert
 (let (($x6793 (= z_0_45 (or z_2_45 z_2_46 z_2_47 z_2_48 z_2_49))))
 (=> x_0_F $x6793)))
(assert
 (let (($x6797 (= z_0_45 (and z_2_45 z_2_46 z_2_47 z_2_48 z_2_49))))
 (=> x_0_G $x6797)))
(assert
 (=> x_0_! (= z_0_46 (not z_2_46))))
(assert
 (let (($x6806 (= z_0_46 z_2_47)))
 (=> x_0_X $x6806)))
(assert
 (let (($x6810 (= z_0_46 (or z_2_46 z_2_47 z_2_48 z_2_49))))
 (=> x_0_F $x6810)))
(assert
 (let (($x6814 (= z_0_46 (and z_2_46 z_2_47 z_2_48 z_2_49))))
 (=> x_0_G $x6814)))
(assert
 (=> x_0_! (= z_0_47 (not z_2_47))))
(assert
 (let (($x6823 (= z_0_47 z_2_48)))
 (=> x_0_X $x6823)))
(assert
 (let (($x6826 (or z_2_47 z_2_48 z_2_49)))
 (let (($x6827 (= z_0_47 $x6826)))
 (=> x_0_F $x6827))))
(assert
 (let (($x6831 (= z_0_47 (and z_2_47 z_2_48 z_2_49))))
 (=> x_0_G $x6831)))
(assert
 (=> x_0_! (= z_0_48 (not z_2_48))))
(assert
 (let (($x6840 (= z_0_48 z_2_49)))
 (=> x_0_X $x6840)))
(assert
 (=> x_0_F (= z_0_48 (or z_2_48 z_2_49 z_2_47))))
(assert
 (let (($x6849 (= z_0_48 (and z_2_48 z_2_49 z_2_47))))
 (=> x_0_G $x6849)))
(assert
 (=> x_0_! (= z_0_49 (not z_2_49))))
(assert
 (let (($x6858 (= z_0_49 z_2_47)))
 (=> x_0_X $x6858)))
(assert
 (=> x_0_F (= z_0_49 (or z_2_49 z_0_47))))
(assert
 (let (($x6868 (= z_0_49 (and z_2_49 z_0_47))))
 (=> x_0_G $x6868)))
(assert
 (=> x_0_! (= z_0_50 (not z_2_50))))
(assert
 (let (($x6879 (= z_0_50 z_2_51)))
 (=> x_0_X $x6879)))
(assert
 (=> x_0_F (= z_0_50 (or z_2_50 z_2_51 z_2_48 z_2_49 z_2_47))))
(assert
 (let (($x6889 (= z_0_50 (and z_2_50 z_2_51 z_2_48 z_2_49 z_2_47))))
 (=> x_0_G $x6889)))
(assert
 (=> x_0_! (= z_0_51 (not z_2_51))))
(assert
 (let (($x6898 (= z_0_51 z_2_48)))
 (=> x_0_X $x6898)))
(assert
 (=> x_0_F (= z_0_51 (or z_2_51 z_2_48 z_2_49 z_2_47))))
(assert
 (let (($x6908 (= z_0_51 (and z_2_51 z_2_48 z_2_49 z_2_47))))
 (=> x_0_G $x6908)))
(assert
 (=> x_0_! (= z_0_52 (not z_2_52))))
(assert
 (let (($x6919 (= z_0_52 z_2_53)))
 (=> x_0_X $x6919)))
(assert
 (=> x_0_F (= z_0_52 (or z_2_52 z_2_53 z_2_42 z_2_8 z_2_9 z_2_10))))
(assert
 (let (($x6929 (= z_0_52 (and z_2_52 z_2_53 z_2_42 z_2_8 z_2_9 z_2_10))))
 (=> x_0_G $x6929)))
(assert
 (=> x_0_! (= z_0_53 (not z_2_53))))
(assert
 (let (($x6938 (= z_0_53 z_2_42)))
 (=> x_0_X $x6938)))
(assert
 (=> x_0_F (= z_0_53 (or z_2_53 z_2_42 z_2_8 z_2_9 z_2_10))))
(assert
 (let (($x6948 (= z_0_53 (and z_2_53 z_2_42 z_2_8 z_2_9 z_2_10))))
 (=> x_0_G $x6948)))
(assert
 (=> x_0_! (= z_0_54 (not z_2_54))))
(assert
 (let (($x6959 (= z_0_54 z_2_55)))
 (=> x_0_X $x6959)))
(assert
 (=> x_0_F (= z_0_54 (or z_2_54 z_2_55 z_2_42 z_2_8 z_2_9 z_2_10))))
(assert
 (let (($x6969 (= z_0_54 (and z_2_54 z_2_55 z_2_42 z_2_8 z_2_9 z_2_10))))
 (=> x_0_G $x6969)))
(assert
 (=> x_0_! (= z_0_55 (not z_2_55))))
(assert
 (let (($x6978 (= z_0_55 z_2_42)))
 (=> x_0_X $x6978)))
(assert
 (=> x_0_F (= z_0_55 (or z_2_55 z_2_42 z_2_8 z_2_9 z_2_10))))
(assert
 (let (($x6988 (= z_0_55 (and z_2_55 z_2_42 z_2_8 z_2_9 z_2_10))))
 (=> x_0_G $x6988)))
(assert
 (=> x_0_! (= z_0_56 (not z_2_56))))
(assert
 (let (($x6999 (= z_0_56 z_2_57)))
 (=> x_0_X $x6999)))
(assert
 (=> x_0_F (= z_0_56 (or z_2_56 z_2_57 z_2_4 z_2_5 z_2_3))))
(assert
 (let (($x7009 (= z_0_56 (and z_2_56 z_2_57 z_2_4 z_2_5 z_2_3))))
 (=> x_0_G $x7009)))
(assert
 (=> x_0_! (= z_0_57 (not z_2_57))))
(assert
 (let (($x7018 (= z_0_57 z_2_4)))
 (=> x_0_X $x7018)))
(assert
 (=> x_0_F (= z_0_57 (or z_2_57 z_2_4 z_2_5 z_2_3))))
(assert
 (let (($x7028 (= z_0_57 (and z_2_57 z_2_4 z_2_5 z_2_3))))
 (=> x_0_G $x7028)))
(assert
 (=> x_0_! (= z_0_58 (not z_2_58))))
(assert
 (let (($x7038 (= z_0_58 z_2_55)))
 (=> x_0_X $x7038)))
(assert
 (=> x_0_F (= z_0_58 (or z_2_58 z_2_55 z_2_42 z_2_8 z_2_9 z_2_10))))
(assert
 (let (($x7048 (= z_0_58 (and z_2_58 z_2_55 z_2_42 z_2_8 z_2_9 z_2_10))))
 (=> x_0_G $x7048)))
(assert
 (=> x_0_! (= z_0_59 (not z_2_59))))
(assert
 (let (($x7058 (= z_0_59 z_2_1)))
 (=> x_0_X $x7058)))
(assert
 (=> x_0_F (= z_0_59 (or z_2_59 z_2_1 z_2_2 z_2_0))))
(assert
 (let (($x7068 (= z_0_59 (and z_2_59 z_2_1 z_2_2 z_2_0))))
 (=> x_0_G $x7068)))
(assert
 (=> x_0_! (= z_0_60 (not z_2_60))))
(assert
 (let (($x7078 (= z_0_60 z_2_1)))
 (=> x_0_X $x7078)))
(assert
 (=> x_0_F (= z_0_60 (or z_2_60 z_2_1 z_2_2 z_2_0))))
(assert
 (let (($x7088 (= z_0_60 (and z_2_60 z_2_1 z_2_2 z_2_0))))
 (=> x_0_G $x7088)))
(assert
 (=> x_0_! (= z_0_61 (not z_2_61))))
(assert
 (let (($x7098 (= z_0_61 z_2_60)))
 (=> x_0_X $x7098)))
(assert
 (=> x_0_F (= z_0_61 (or z_2_61 z_2_60 z_2_1 z_2_2 z_2_0))))
(assert
 (let (($x7108 (= z_0_61 (and z_2_61 z_2_60 z_2_1 z_2_2 z_2_0))))
 (=> x_0_G $x7108)))
(assert
 (=> x_0_! (= z_0_62 (not z_2_62))))
(assert
 (let (($x7119 (= z_0_62 z_2_63)))
 (=> x_0_X $x7119)))
(assert
 (=> x_0_F (= z_0_62 (or z_2_62 z_2_63 z_2_27 z_2_24 z_2_25 z_2_26))))
(assert
 (let (($x7129 (= z_0_62 (and z_2_62 z_2_63 z_2_27 z_2_24 z_2_25 z_2_26))))
 (=> x_0_G $x7129)))
(assert
 (=> x_0_! (= z_0_63 (not z_2_63))))
(assert
 (let (($x7138 (= z_0_63 z_2_27)))
 (=> x_0_X $x7138)))
(assert
 (=> x_0_F (= z_0_63 (or z_2_63 z_2_27 z_2_24 z_2_25 z_2_26))))
(assert
 (let (($x7148 (= z_0_63 (and z_2_63 z_2_27 z_2_24 z_2_25 z_2_26))))
 (=> x_0_G $x7148)))
(assert
 (=> x_0_! (= z_0_64 (not z_2_64))))
(assert
 (let (($x7159 (= z_0_64 z_2_65)))
 (=> x_0_X $x7159)))
(assert
 (=> x_0_F (= z_0_64 (or z_2_64 z_2_65 z_2_66 z_2_2 z_2_0))))
(assert
 (let (($x7170 (= z_0_64 (and z_2_64 z_2_65 z_2_66 z_2_2 z_2_0))))
 (=> x_0_G $x7170)))
(assert
 (=> x_0_! (= z_0_65 (not z_2_65))))
(assert
 (let (($x7179 (= z_0_65 z_2_66)))
 (=> x_0_X $x7179)))
(assert
 (=> x_0_F (= z_0_65 (or z_2_65 z_2_66 z_2_2 z_2_0))))
(assert
 (let (($x7189 (= z_0_65 (and z_2_65 z_2_66 z_2_2 z_2_0))))
 (=> x_0_G $x7189)))
(assert
 (=> x_0_! (= z_0_66 (not z_2_66))))
(assert
 (let (($x7198 (= z_0_66 z_2_2)))
 (=> x_0_X $x7198)))
(assert
 (=> x_0_F (= z_0_66 (or z_2_66 z_2_2 z_2_0))))
(assert
 (let (($x7208 (= z_0_66 (and z_2_66 z_2_2 z_2_0))))
 (=> x_0_G $x7208)))
(assert
 (=> x_0_! (= z_0_67 (not z_2_67))))
(assert
 (let (($x7218 (= z_0_67 z_2_14)))
 (=> x_0_X $x7218)))
(assert
 (=> x_0_F (= z_0_67 (or z_2_67 z_2_14 z_2_15 z_2_16 z_2_17 z_2_18))))
(assert
 (let (($x7228 (= z_0_67 (and z_2_67 z_2_14 z_2_15 z_2_16 z_2_17 z_2_18))))
 (=> x_0_G $x7228)))
(assert
 (=> x_0_! (= z_0_68 (not z_2_68))))
(assert
 (let (($x7239 (= z_0_68 z_2_69)))
 (=> x_0_X $x7239)))
(assert
 (let (($x7248 (or z_2_68 z_2_69 z_2_70 z_2_71 z_2_72 z_2_73 z_2_74 z_2_75 z_2_19 z_2_20 z_2_16 z_2_17 z_2_18 z_2_15)))
 (=> x_0_F (= z_0_68 $x7248))))
(assert
 (let (($x7254 (and z_2_68 z_2_69 z_2_70 z_2_71 z_2_72 z_2_73 z_2_74 z_2_75 z_2_19 z_2_20 z_2_16 z_2_17 z_2_18 z_2_15)))
 (let (($x7255 (= z_0_68 $x7254)))
 (=> x_0_G $x7255))))
(assert
 (=> x_0_! (= z_0_69 (not z_2_69))))
(assert
 (let (($x7264 (= z_0_69 z_2_70)))
 (=> x_0_X $x7264)))
(assert
 (let (($x7267 (or z_2_69 z_2_70 z_2_71 z_2_72 z_2_73 z_2_74 z_2_75 z_2_19 z_2_20 z_2_16 z_2_17 z_2_18 z_2_15)))
 (=> x_0_F (= z_0_69 $x7267))))
(assert
 (let (($x7273 (and z_2_69 z_2_70 z_2_71 z_2_72 z_2_73 z_2_74 z_2_75 z_2_19 z_2_20 z_2_16 z_2_17 z_2_18 z_2_15)))
 (let (($x7274 (= z_0_69 $x7273)))
 (=> x_0_G $x7274))))
(assert
 (=> x_0_! (= z_0_70 (not z_2_70))))
(assert
 (let (($x7283 (= z_0_70 z_2_71)))
 (=> x_0_X $x7283)))
(assert
 (let (($x7286 (or z_2_70 z_2_71 z_2_72 z_2_73 z_2_74 z_2_75 z_2_19 z_2_20 z_2_16 z_2_17 z_2_18 z_2_15)))
 (=> x_0_F (= z_0_70 $x7286))))
(assert
 (let (($x7292 (and z_2_70 z_2_71 z_2_72 z_2_73 z_2_74 z_2_75 z_2_19 z_2_20 z_2_16 z_2_17 z_2_18 z_2_15)))
 (let (($x7293 (= z_0_70 $x7292)))
 (=> x_0_G $x7293))))
(assert
 (=> x_0_! (= z_0_71 (not z_2_71))))
(assert
 (let (($x7302 (= z_0_71 z_2_72)))
 (=> x_0_X $x7302)))
(assert
 (let (($x7305 (or z_2_71 z_2_72 z_2_73 z_2_74 z_2_75 z_2_19 z_2_20 z_2_16 z_2_17 z_2_18 z_2_15)))
 (=> x_0_F (= z_0_71 $x7305))))
(assert
 (let (($x7311 (and z_2_71 z_2_72 z_2_73 z_2_74 z_2_75 z_2_19 z_2_20 z_2_16 z_2_17 z_2_18 z_2_15)))
 (let (($x7312 (= z_0_71 $x7311)))
 (=> x_0_G $x7312))))
(assert
 (=> x_0_! (= z_0_72 (not z_2_72))))
(assert
 (let (($x7321 (= z_0_72 z_2_73)))
 (=> x_0_X $x7321)))
(assert
 (let (($x7324 (or z_2_72 z_2_73 z_2_74 z_2_75 z_2_19 z_2_20 z_2_16 z_2_17 z_2_18 z_2_15)))
 (=> x_0_F (= z_0_72 $x7324))))
(assert
 (let (($x7330 (and z_2_72 z_2_73 z_2_74 z_2_75 z_2_19 z_2_20 z_2_16 z_2_17 z_2_18 z_2_15)))
 (let (($x7331 (= z_0_72 $x7330)))
 (=> x_0_G $x7331))))
(assert
 (=> x_0_! (= z_0_73 (not z_2_73))))
(assert
 (let (($x7340 (= z_0_73 z_2_74)))
 (=> x_0_X $x7340)))
(assert
 (let (($x7343 (or z_2_73 z_2_74 z_2_75 z_2_19 z_2_20 z_2_16 z_2_17 z_2_18 z_2_15)))
 (=> x_0_F (= z_0_73 $x7343))))
(assert
 (let (($x7349 (and z_2_73 z_2_74 z_2_75 z_2_19 z_2_20 z_2_16 z_2_17 z_2_18 z_2_15)))
 (let (($x7350 (= z_0_73 $x7349)))
 (=> x_0_G $x7350))))
(assert
 (=> x_0_! (= z_0_74 (not z_2_74))))
(assert
 (let (($x7359 (= z_0_74 z_2_75)))
 (=> x_0_X $x7359)))
(assert
 (let (($x7362 (or z_2_74 z_2_75 z_2_19 z_2_20 z_2_16 z_2_17 z_2_18 z_2_15)))
 (=> x_0_F (= z_0_74 $x7362))))
(assert
 (let (($x7368 (and z_2_74 z_2_75 z_2_19 z_2_20 z_2_16 z_2_17 z_2_18 z_2_15)))
 (let (($x7369 (= z_0_74 $x7368)))
 (=> x_0_G $x7369))))
(assert
 (=> x_0_! (= z_0_75 (not z_2_75))))
(assert
 (let (($x7378 (= z_0_75 z_2_19)))
 (=> x_0_X $x7378)))
(assert
 (let (($x7382 (= z_0_75 (or z_2_75 z_2_19 z_2_20 z_2_16 z_2_17 z_2_18 z_2_15))))
 (=> x_0_F $x7382)))
(assert
 (let (($x7388 (= z_0_75 (and z_2_75 z_2_19 z_2_20 z_2_16 z_2_17 z_2_18 z_2_15))))
 (=> x_0_G $x7388)))
(assert
 (=> x_0_! (= z_0_76 (not z_2_76))))
(assert
 (let (($x7399 (= z_0_76 z_2_77)))
 (=> x_0_X $x7399)))
(assert
 (let (($x7403 (or z_2_76 z_2_77 z_2_78 z_2_23 z_2_24 z_2_25 z_2_26 z_2_27)))
 (=> x_0_F (= z_0_76 $x7403))))
(assert
 (let (($x7409 (and z_2_76 z_2_77 z_2_78 z_2_23 z_2_24 z_2_25 z_2_26 z_2_27)))
 (let (($x7410 (= z_0_76 $x7409)))
 (=> x_0_G $x7410))))
(assert
 (=> x_0_! (= z_0_77 (not z_2_77))))
(assert
 (let (($x7419 (= z_0_77 z_2_78)))
 (=> x_0_X $x7419)))
(assert
 (let (($x7423 (= z_0_77 (or z_2_77 z_2_78 z_2_23 z_2_24 z_2_25 z_2_26 z_2_27))))
 (=> x_0_F $x7423)))
(assert
 (let (($x7429 (= z_0_77 (and z_2_77 z_2_78 z_2_23 z_2_24 z_2_25 z_2_26 z_2_27))))
 (=> x_0_G $x7429)))
(assert
 (=> x_0_! (= z_0_78 (not z_2_78))))
(assert
 (let (($x7438 (= z_0_78 z_2_23)))
 (=> x_0_X $x7438)))
(assert
 (=> x_0_F (= z_0_78 (or z_2_78 z_2_23 z_2_24 z_2_25 z_2_26 z_2_27))))
(assert
 (let (($x7448 (= z_0_78 (and z_2_78 z_2_23 z_2_24 z_2_25 z_2_26 z_2_27))))
 (=> x_0_G $x7448)))
(assert
 (=> x_0_! (= z_0_79 (not z_2_79))))
(assert
 (let (($x7459 (= z_0_79 z_2_80)))
 (=> x_0_X $x7459)))
(assert
 (let (($x7463 (or z_2_79 z_2_80 z_2_81 z_2_73 z_2_74 z_2_75 z_2_19 z_2_20 z_2_16 z_2_17 z_2_18 z_2_15)))
 (=> x_0_F (= z_0_79 $x7463))))
(assert
 (let (($x7469 (and z_2_79 z_2_80 z_2_81 z_2_73 z_2_74 z_2_75 z_2_19 z_2_20 z_2_16 z_2_17 z_2_18 z_2_15)))
 (let (($x7470 (= z_0_79 $x7469)))
 (=> x_0_G $x7470))))
(assert
 (=> x_0_! (= z_0_80 (not z_2_80))))
(assert
 (let (($x7479 (= z_0_80 z_2_81)))
 (=> x_0_X $x7479)))
(assert
 (let (($x7482 (or z_2_80 z_2_81 z_2_73 z_2_74 z_2_75 z_2_19 z_2_20 z_2_16 z_2_17 z_2_18 z_2_15)))
 (=> x_0_F (= z_0_80 $x7482))))
(assert
 (let (($x7488 (and z_2_80 z_2_81 z_2_73 z_2_74 z_2_75 z_2_19 z_2_20 z_2_16 z_2_17 z_2_18 z_2_15)))
 (let (($x7489 (= z_0_80 $x7488)))
 (=> x_0_G $x7489))))
(assert
 (=> x_0_! (= z_0_81 (not z_2_81))))
(assert
 (let (($x7498 (= z_0_81 z_2_73)))
 (=> x_0_X $x7498)))
(assert
 (let (($x7501 (or z_2_81 z_2_73 z_2_74 z_2_75 z_2_19 z_2_20 z_2_16 z_2_17 z_2_18 z_2_15)))
 (=> x_0_F (= z_0_81 $x7501))))
(assert
 (let (($x7507 (and z_2_81 z_2_73 z_2_74 z_2_75 z_2_19 z_2_20 z_2_16 z_2_17 z_2_18 z_2_15)))
 (let (($x7508 (= z_0_81 $x7507)))
 (=> x_0_G $x7508))))
(assert
 (=> x_0_! (= z_0_82 (not z_2_82))))
(assert
 (let (($x7518 (= z_0_82 z_2_66)))
 (=> x_0_X $x7518)))
(assert
 (=> x_0_F (= z_0_82 (or z_2_82 z_2_66 z_2_2 z_2_0))))
(assert
 (let (($x7528 (= z_0_82 (and z_2_82 z_2_66 z_2_2 z_2_0))))
 (=> x_0_G $x7528)))
(assert
 (=> x_0_! (= z_0_83 (not z_2_83))))
(assert
 (let (($x7539 (= z_0_83 z_2_84)))
 (=> x_0_X $x7539)))
(assert
 (=> x_0_F (= z_0_83 (or z_2_83 z_2_84 z_2_57 z_2_4 z_2_5 z_2_3))))
(assert
 (let (($x7549 (= z_0_83 (and z_2_83 z_2_84 z_2_57 z_2_4 z_2_5 z_2_3))))
 (=> x_0_G $x7549)))
(assert
 (=> x_0_! (= z_0_84 (not z_2_84))))
(assert
 (let (($x7558 (= z_0_84 z_2_57)))
 (=> x_0_X $x7558)))
(assert
 (=> x_0_F (= z_0_84 (or z_2_84 z_2_57 z_2_4 z_2_5 z_2_3))))
(assert
 (let (($x7568 (= z_0_84 (and z_2_84 z_2_57 z_2_4 z_2_5 z_2_3))))
 (=> x_0_G $x7568)))
(assert
 (and true true))
(assert
 (=> x_2_p z_2_0))
(assert
 (=> x_2_p z_2_1))
(assert
 (let (($x5956 (not z_2_2)))
 (=> x_2_p $x5956)))
(assert
 (=> x_2_p z_2_3))
(assert
 (=> x_2_p z_2_4))
(assert
 (let (($x6013 (not z_2_5)))
 (=> x_2_p $x6013)))
(assert
 (let (($x6033 (not z_2_6)))
 (=> x_2_p $x6033)))
(assert
 (let (($x6053 (not z_2_7)))
 (=> x_2_p $x6053)))
(assert
 (let (($x6073 (not z_2_8)))
 (=> x_2_p $x6073)))
(assert
 (let (($x6090 (not z_2_9)))
 (=> x_2_p $x6090)))
(assert
 (=> x_2_p z_2_10))
(assert
 (let (($x6127 (not z_2_11)))
 (=> x_2_p $x6127)))
(assert
 (let (($x6151 (not z_2_12)))
 (=> x_2_p $x6151)))
(assert
 (let (($x6168 (not z_2_13)))
 (=> x_2_p $x6168)))
(assert
 (let (($x6185 (not z_2_14)))
 (=> x_2_p $x6185)))
(assert
 (let (($x6202 (not z_2_15)))
 (=> x_2_p $x6202)))
(assert
 (let (($x6219 (not z_2_16)))
 (=> x_2_p $x6219)))
(assert
 (let (($x6237 (not z_2_17)))
 (=> x_2_p $x6237)))
(assert
 (=> x_2_p z_2_18))
(assert
 (let (($x6275 (not z_2_19)))
 (=> x_2_p $x6275)))
(assert
 (=> x_2_p z_2_20))
(assert
 (let (($x6315 (not z_2_21)))
 (=> x_2_p $x6315)))
(assert
 (=> x_2_p z_2_22))
(assert
 (let (($x6355 (not z_2_23)))
 (=> x_2_p $x6355)))
(assert
 (let (($x6372 (not z_2_24)))
 (=> x_2_p $x6372)))
(assert
 (let (($x6389 (not z_2_25)))
 (=> x_2_p $x6389)))
(assert
 (=> x_2_p z_2_26))
(assert
 (=> x_2_p z_2_27))
(assert
 (=> x_2_p z_2_28))
(assert
 (let (($x6463 (not z_2_29)))
 (=> x_2_p $x6463)))
(assert
 (=> x_2_p z_2_30))
(assert
 (=> x_2_p z_2_31))
(assert
 (let (($x6523 (not z_2_32)))
 (=> x_2_p $x6523)))
(assert
 (let (($x6543 (not z_2_33)))
 (=> x_2_p $x6543)))
(assert
 (=> x_2_p z_2_34))
(assert
 (let (($x6583 (not z_2_35)))
 (=> x_2_p $x6583)))
(assert
 (=> x_2_p z_2_36))
(assert
 (=> x_2_p z_2_37))
(assert
 (=> x_2_p z_2_38))
(assert
 (let (($x6663 (not z_2_39)))
 (=> x_2_p $x6663)))
(assert
 (let (($x6684 (not z_2_40)))
 (=> x_2_p $x6684)))
(assert
 (let (($x6703 (not z_2_41)))
 (=> x_2_p $x6703)))
(assert
 (=> x_2_p z_2_42))
(assert
 (=> x_2_p z_2_43))
(assert
 (=> x_2_p z_2_44))
(assert
 (let (($x6783 (not z_2_45)))
 (=> x_2_p $x6783)))
(assert
 (=> x_2_p z_2_46))
(assert
 (let (($x6817 (not z_2_47)))
 (=> x_2_p $x6817)))
(assert
 (=> x_2_p z_2_48))
(assert
 (let (($x6852 (not z_2_49)))
 (=> x_2_p $x6852)))
(assert
 (let (($x6872 (not z_2_50)))
 (=> x_2_p $x6872)))
(assert
 (=> x_2_p z_2_51))
(assert
 (=> x_2_p z_2_52))
(assert
 (let (($x6932 (not z_2_53)))
 (=> x_2_p $x6932)))
(assert
 (=> x_2_p z_2_54))
(assert
 (=> x_2_p z_2_55))
(assert
 (=> x_2_p z_2_56))
(assert
 (let (($x7012 (not z_2_57)))
 (=> x_2_p $x7012)))
(assert
 (let (($x7032 (not z_2_58)))
 (=> x_2_p $x7032)))
(assert
 (let (($x7052 (not z_2_59)))
 (=> x_2_p $x7052)))
(assert
 (=> x_2_p z_2_60))
(assert
 (=> x_2_p z_2_61))
(assert
 (=> x_2_p z_2_62))
(assert
 (let (($x7132 (not z_2_63)))
 (=> x_2_p $x7132)))
(assert
 (let (($x7152 (not z_2_64)))
 (=> x_2_p $x7152)))
(assert
 (let (($x7173 (not z_2_65)))
 (=> x_2_p $x7173)))
(assert
 (let (($x7192 (not z_2_66)))
 (=> x_2_p $x7192)))
(assert
 (=> x_2_p z_2_67))
(assert
 (let (($x7232 (not z_2_68)))
 (=> x_2_p $x7232)))
(assert
 (=> x_2_p z_2_69))
(assert
 (let (($x7277 (not z_2_70)))
 (=> x_2_p $x7277)))
(assert
 (let (($x7296 (not z_2_71)))
 (=> x_2_p $x7296)))
(assert
 (let (($x7315 (not z_2_72)))
 (=> x_2_p $x7315)))
(assert
 (=> x_2_p z_2_73))
(assert
 (=> x_2_p z_2_74))
(assert
 (=> x_2_p z_2_75))
(assert
 (=> x_2_p z_2_76))
(assert
 (let (($x7413 (not z_2_77)))
 (=> x_2_p $x7413)))
(assert
 (let (($x7432 (not z_2_78)))
 (=> x_2_p $x7432)))
(assert
 (let (($x7452 (not z_2_79)))
 (=> x_2_p $x7452)))
(assert
 (=> x_2_p z_2_80))
(assert
 (=> x_2_p z_2_81))
(assert
 (=> x_2_p z_2_82))
(assert
 (let (($x7532 (not z_2_83)))
 (=> x_2_p $x7532)))
(assert
 (let (($x7552 (not z_2_84)))
 (=> x_2_p $x7552)))
(assert
 (or x_2_p))
(assert
 (let (($x7589 (not x_2_->)))
 (let (($x7587 (not x_2_U)))
 (let (($x7585 (not x_2_v)))
 (let (($x7583 (not x_2_&)))
 (let (($x7581 (not x_2_X)))
 (let (($x7579 (not x_2_!)))
 (let (($x7577 (not x_2_F)))
 (let (($x7575 (not x_2_G)))
 (and $x7575 $x7577 $x7579 $x7581 $x7583 $x7585 $x7587 $x7589))))))))))
(check-sat)

